c   #vars: 123   #clauses: 556   #literals: 1498
c 
p cnf 123 556
11 12 37 38 0
21 22 89 90 0
-1 -2 0
-3 -4 0
-5 -6 0
-7 -8 0
-9 -10 0
-11 -12 0
-13 -14 0
13 14 89 90 0
-15 -16 0
-17 -18 0
-19 -20 0
-21 -22 0
-23 -24 0
-25 -26 0
-27 -28 0
33 -67 103 104 0
-31 -32 0
34 101 102 -108 0
5 6 17 18 0
5 6 114 115 0
-35 -36 0
-37 -38 0
-39 -40 0
-41 -42 0
-43 -44 0
-45 -46 0
-47 -48 0
-49 -50 0
30 63 64 -118 0
-15 39 40 65 0
29 71 72 -76 0
-53 -54 0
-55 -56 0
-57 -58 0
-59 -60 0
-61 -62 0
35 36 122 123 0
-63 -64 0
66 87 88 -89 0
-69 87 88 107 0
-67 -68 0
-69 -70 0
-71 -72 0
-73 -74 0
-75 -76 0
-77 -78 0
-79 -80 0
-81 -82 0
-83 -84 0
-85 -86 0
-87 -88 0
-89 -90 0
-91 -92 0
-93 -94 0
-95 -96 0
25 26 122 123 0
120 121 122 123 0
-97 -98 0
-99 -100 0
-101 -102 0
-103 -104 0
-105 -106 0
61 62 71 72 0
27 28 49 50 0
-108 -109 0
-110 -111 0
-112 -113 0
-114 -115 0
-116 -117 0
-118 -119 0
3 4 95 96 0
-120 -121 0
-122 -123 0
-1 29 51 -76 0
-15 52 61 62 0
15 16 67 68 0
-7 29 51 -76 0
-1 -9 0
-2 -10 0
49 50 116 117 0
-15 52 57 58 0
-11 39 40 65 0
-2 -51 0
-1 -57 0
-2 -58 0
61 62 67 68 0
-1 -85 0
-2 -86 0
9 10 114 115 0
-3 -19 0
-4 -20 0
77 78 85 86 0
-3 -43 0
-4 -44 0
9 10 110 111 0
-3 -73 0
-4 -74 0
59 60 105 106 0
-3 -95 0
-4 -96 0
1 2 9 10 0
-3 -101 0
-4 -102 0
9 10 75 76 0
-3 -116 0
-4 -117 0
25 26 105 106 0
-5 -17 0
-6 -18 0
-5 -55 0
-6 -56 0
-5 -67 0
-6 -68 0
7 8 116 117 0
-5 -91 0
-6 -92 0
7 8 63 64 0
-5 -101 0
-6 -102 0
110 111 120 121 0
-5 -114 0
-6 -115 0
5 6 122 123 0
-5 -122 0
-6 -123 0
13 14 114 115 0
-7 -37 0
-8 -38 0
19 20 108 109 0
-7 -45 0
-8 -46 0
37 38 103 104 0
11 12 -39 65 0
-8 -51 0
-7 -63 0
-8 -64 0
59 60 81 82 0
-7 -79 0
-8 -80 0
75 76 95 96 0
-7 -81 0
-8 -82 0
110 111 118 119 0
-7 -116 0
-8 -117 0
47 48 75 76 0
-9 -69 0
-10 -70 0
61 62 77 78 0
-9 -75 0
-10 -76 0
3 4 19 20 0
-9 -108 0
-10 -109 0
81 82 114 115 0
-9 -110 0
-10 -111 0
69 70 120 121 0
-9 -114 0
-10 -115 0
17 18 43 44 0
-11 -23 0
-12 -24 0
85 86 87 88 0
-11 -37 0
-12 -38 0
31 32 49 50 0
-11 -49 0
-12 -50 0
-39 66 87 88 0
-12 -65 0
-39 66 89 90 0
-11 -73 0
-12 -74 0
5 6 55 56 0
-13 -17 0
-14 -18 0
27 28 118 119 0
34 -41 101 102 0
-14 -33 0
-13 -89 0
-14 -90 0
15 16 103 104 0
-13 -91 0
-14 -92 0
15 16 83 84 0
-13 -101 0
-14 -102 0
47 48 120 121 0
-13 -114 0
-14 -115 0
31 32 53 54 0
15 16 52 -57 0
52 57 58 -61 0
19 20 71 72 0
-15 -43 0
-16 -44 0
35 36 85 86 0
29 -51 71 72 0
-16 -52 0
13 14 101 102 0
39 40 66 -89 0
-16 -65 0
35 36 73 74 0
-15 -67 0
-16 -68 0
93 94 95 96 0
-15 -83 0
-16 -84 0
7 8 37 38 0
-15 -101 0
-16 -102 0
3 4 116 117 0
-15 -103 0
-16 -104 0
13 14 33 -103 0
-17 -37 0
-18 -38 0
-7 29 51 -72 0
-17 -39 0
-18 -40 0
91 92 97 98 0
-17 -43 0
-18 -44 0
23 24 99 100 0
-19 -37 0
-20 -38 0
23 24 97 98 0
-19 -49 0
-20 -50 0
71 72 77 78 0
-19 -71 0
-20 -72 0
21 22 97 98 0
-19 -87 0
-20 -88 0
23 24 25 26 0
-19 -108 0
-20 -109 0
-21 -35 0
-22 -36 0
-21 -77 0
-22 -78 0
-21 -89 0
-22 -90 0
91 92 110 111 0
-21 -97 0
-22 -98 0
17 18 39 40 0
-23 -25 0
-24 -26 0
79 80 99 100 0
-23 -97 0
-24 -98 0
-23 -99 0
-24 -100 0
15 16 -39 65 0
-23 -112 0
-24 -113 0
-25 -35 0
-26 -36 0
66 -87 89 90 0
-25 -57 0
-26 -58 0
43 44 112 113 0
-25 -105 0
-26 -106 0
17 18 37 38 0
-25 -122 0
-26 -123 0
57 58 114 115 0
-27 -35 0
-28 -36 0
61 62 83 84 0
-27 -49 0
-28 -50 0
-27 -63 0
-28 -64 0
27 28 85 86 0
-27 -85 0
-28 -86 0
67 68 103 104 0
-27 -93 0
-28 -94 0
67 68 -69 107 0
-27 -110 0
-28 -111 0
89 90 93 94 0
-27 -112 0
-28 -113 0
-27 -118 0
-28 -119 0
30 63 64 -97 0
7 8 79 80 0
11 12 -15 65 0
27 28 110 111 0
-29 -71 0
53 54 89 90 0
-29 -75 0
41 42 83 84 0
95 96 116 117 0
-13 33 103 104 0
-30 -64 0
53 54 73 74 0
33 67 68 -103 0
-30 -98 0
15 16 43 44 0
-13 33 67 68 0
-30 -119 0
-31 -49 0
-32 -50 0
27 28 93 94 0
-31 -53 0
-32 -54 0
25 26 35 36 0
-31 -83 0
-32 -84 0
21 22 35 36 0
-31 -85 0
-32 -86 0
-31 -91 0
-32 -92 0
73 74 108 109 0
34 42 -108 0
-33 -68 0
11 12 23 24 0
34 41 42 -101 0
-33 -104 0
15 16 52 -61 0
1 2 -7 51 0
-34 -42 0
31 32 85 86 0
-34 -102 0
19 20 37 38 0
52 -57 61 62 0
-34 -109 0
41 42 57 58 0
-35 -73 0
-36 -74 0
25 26 57 58 0
-35 -85 0
-36 -86 0
1 2 57 58 0
-35 -122 0
-36 -123 0
-37 -39 0
-38 -40 0
112 113 116 117 0
-37 -103 0
-38 -104 0
-37 -105 0
-38 -106 0
27 28 63 64 0
-39 -63 0
-40 -64 0
5 6 91 92 0
39 40 66 -87 0
-40 -65 0
61 62 120 121 0
-67 87 88 107 0
-40 -66 0
-41 -57 0
-42 -58 0
-1 29 51 -72 0
-41 -61 0
-42 -62 0
23 24 112 113 0
-41 -83 0
-42 -84 0
31 32 91 92 0
-41 -108 0
-42 -109 0
34 -41 109 0
-43 -112 0
-44 -113 0
93 94 101 102 0
-45 -63 0
-46 -64 0
9 10 108 109 0
-45 -69 0
-46 -70 0
-45 -87 0
-46 -88 0
30 -97 118 119 0
-47 -75 0
-48 -76 0
13 14 91 92 0
-47 -83 0
-48 -84 0
63 64 77 78 0
-47 -99 0
-48 -100 0
37 38 39 40 0
-47 -120 0
-48 -121 0
53 54 99 100 0
-49 -97 0
-50 -98 0
71 72 118 119 0
-49 -116 0
-50 -117 0
5 6 67 68 0
-49 -122 0
-50 -123 0
9 10 69 70 0
30 97 98 -118 0
3 4 101 102 0
5 6 101 102 0
-1 7 8 51 0
29 -72 75 76 0
-52 -58 0
47 48 83 84 0
29 -51 75 76 0
-52 -62 0
85 86 101 102 0
-53 -73 0
-54 -74 0
39 40 63 64 0
-53 -89 0
-54 -90 0
7 8 81 82 0
-53 -99 0
-54 -100 0
-55 -57 0
-56 -58 0
34 -101 108 109 0
-55 -105 0
-56 -106 0
27 28 35 36 0
-55 -108 0
-56 -109 0
41 42 108 109 0
-57 -114 0
-58 -115 0
45 46 69 70 0
-59 -81 0
-60 -82 0
-59 -93 0
-60 -94 0
-59 -103 0
-60 -104 0
19 20 87 88 0
-59 -105 0
-60 -106 0
3 4 73 74 0
-61 -67 0
-62 -68 0
21 22 77 78 0
-61 -71 0
-62 -72 0
45 46 87 88 0
-61 -77 0
-62 -78 0
79 80 93 94 0
-61 -83 0
-62 -84 0
3 4 43 44 0
-61 -120 0
-62 -121 0
15 16 101 102 0
30 -63 97 98 0
30 -63 118 119 0
-63 -77 0
-64 -78 0
19 20 49 50 0
69 70 -87 107 0
-66 -88 0
27 28 112 113 0
-67 69 70 107 0
-66 -90 0
11 12 73 74 0
-67 -103 0
-68 -104 0
-68 -107 0
79 80 89 90 0
-70 -107 0
-69 -120 0
-70 -121 0
83 84 89 90 0
-71 -77 0
-72 -78 0
-11 15 16 65 0
-71 -118 0
-72 -119 0
31 32 83 84 0
-73 -108 0
-74 -109 0
11 12 49 50 0
-75 -95 0
-76 -96 0
67 68 -87 107 0
-77 -85 0
-78 -86 0
91 92 99 100 0
-79 -89 0
-80 -90 0
41 42 61 62 0
-79 -93 0
-80 -94 0
55 56 108 109 0
-79 -99 0
-80 -100 0
1 2 -29 51 0
-81 -103 0
-82 -104 0
37 38 105 106 0
-81 -114 0
-82 -115 0
59 60 93 94 0
-83 -89 0
-84 -90 0
-85 -87 0
-86 -88 0
108 109 116 117 0
-85 -101 0
-86 -102 0
55 56 57 58 0
-88 -107 0
81 82 103 104 0
-89 -93 0
-90 -94 0
47 48 99 100 0
-91 -97 0
-92 -98 0
-91 -99 0
-92 -100 0
-91 -110 0
-92 -111 0
55 56 105 106 0
-93 -95 0
-94 -96 0
59 60 103 104 0
-93 -101 0
-94 -102 0
49 50 122 123 0
-95 -116 0
-96 -117 0
13 14 17 18 0
7 8 -29 51 0
13 14 33 -67 0
-108 -116 0
-109 -117 0
49 50 97 98 0
-110 -118 0
-111 -119 0
7 8 45 46 0
-110 -120 0
-111 -121 0
45 46 63 64 0
-112 -116 0
-113 -117 0
1 2 85 86 0
-120 -122 0
-121 -123 0
